%Chk=sp
%mem=30gb
%nproc=8

# MP2/aug-cc-pVDZ fchk units=bohr

mp2 single point

0 1
GEOMETRY

