%Chk=sp                                                                         
%mem=30gb                                                                       
%nproc=8                                                                        
                                                                                
# MP2/aug-cc-pVDZ fchk units=bohr                                               
                                                                                
mp2 single point                                                                
                                                                                
0 1                                                                             
C          -0.0038424609       -0.0089191740       -0.0028620061
H           1.8991221009       -0.7698356431       -0.1864787653
H          -1.0981088151       -0.2278437428       -1.7391164391
H           0.2590244200        1.9989739052        0.3961303266
H          -1.0142861803       -0.8950954390        1.5635422947
N           6.2870585565       -0.4396784506        0.8173214761
N           7.3040572383        0.4396784506       -0.8173214761
                                                                                
